Co1 Te1 O4                              
   1.00000000000000     
     0.0000000000000000    5.4188859999999996    0.0000000000000000
     3.0923270000000000    0.0000000000000000    0.0000000000000000
     0.0000000000000000   -1.5509910000000000  -21.8688150000000014
   Co   Te   O 
     1     1     4
Direct
  0.5000000000000000  0.5000000000000000  0.0000000000000000
  0.0000000000000000  0.0000000000000000  0.0000000000000000
  0.3050799999999967  0.0000000000000000  0.9588099999999997
  0.6949200000000033  0.0000000000000000  0.0411900000000003
  0.8392853203282316  0.5000000000000001  0.9513149082213639
  0.1609109999999987  0.5000000000000000  0.0493710000000007
 
  0.00000000E+00  0.00000000E+00  0.00000000E+00
  0.00000000E+00  0.00000000E+00  0.00000000E+00
  0.00000000E+00  0.00000000E+00  0.00000000E+00
  0.00000000E+00  0.00000000E+00  0.00000000E+00
  0.00000000E+00  0.00000000E+00  0.00000000E+00
  0.00000000E+00  0.00000000E+00  0.00000000E+00
