Ti2 O4
1.0
4.632142 0.000000 0.000000
0.000000 4.632142 0.000000
0.000000 0.000000 2.971761
Ti O
2 4
direct
0.500000 0.500000 0.500000 Ti
0.000000 0.000000 0.000000 Ti
0.695764 0.695764 0.000000 O
0.804236 0.195764 0.500000 O
0.304236 0.304236 0.000000 O
0.195764 0.804236 0.500000 O
